presolving:
(round 1, fast)       15000 del vars, 30072 del conss, 0 add conss, 0 chg bounds, 0 chg sides, 0 chg coeffs, 0 upgd conss, 0 impls, 15200 clqs
   (0.6s) running MILP presolver
   (0.6s) MILP presolver found nothing
(round 2, exhaustive) 15000 del vars, 30072 del conss, 0 add conss, 0 chg bounds, 0 chg sides, 0 chg coeffs, 15203 upgd conss, 0 impls, 15200 clqs
   (1.1s) probing: 51/15075 (0.3%) - 0 fixings, 0 aggregations, 0 implications, 0 bound changes
   (1.1s) probing aborted: 50/50 successive totally useless probings
   (1.2s) symmetry computation started: requiring (bin +, int -, cont +), (fixed: bin -, int +, cont -)
   (1.2s) no symmetry present
presolving (3 rounds: 3 fast, 2 medium, 2 exhaustive):
 15000 deleted vars, 30072 deleted constraints, 0 added constraints, 0 tightened bounds, 0 added holes, 0 changed sides, 3 changed coefficients
 0 implications, 15200 cliques
presolved problem has 15075 variables (15075 bin, 0 int, 0 impl, 0 cont) and 15203 constraints
      3 constraints of type <knapsack>
  15200 constraints of type <setppc>
transformed objective value is always integral (scale: 1)
Presolving Time: 1.04

 time | node  | left  |LP iter|LP it/n|mem/heur|mdpt |vars |cons |rows |cuts |sepa|confs|strbr|  dualbound   | primalbound  |  gap   | compl. 
p 1.4s|     1 |     0 |     0 |     - |  clique|   0 |  15k|  15k|  15k|   0 |  0 |   0 |   0 | 0.000000e+00 | 5.235250e+05 |    Inf | unknown
p 1.7s|     1 |     0 |     0 |     - | vbounds|   0 |  15k|  15k|  15k|   0 |  0 |   0 |   0 | 0.000000e+00 | 1.062750e+05 |    Inf | unknown
p 1.7s|     1 |     0 |     0 |     - | vbounds|   0 |  15k|  15k|  15k|   0 |  0 |   0 |   0 | 0.000000e+00 | 1.052300e+05 |    Inf | unknown
  4.2s|     1 |     0 | 10744 |     - |   250M |   0 |  15k|  15k|  15k|   0 |  0 |  11 |   0 | 1.024841e+05 | 1.052300e+05 |   2.68%| unknown
  4.3s|     1 |     0 | 10744 |     - |   252M |   0 |  15k|  15k|  12k|   0 |  0 |  11 |   0 | 1.024841e+05 | 1.052300e+05 |   2.68%| unknown
  5.6s|     1 |     0 | 11340 |     - |   257M |   0 |  15k|  12k|  12k|   4 |  1 |  11 |   0 | 1.025156e+05 | 1.052300e+05 |   2.65%| unknown
  6.9s|     1 |     0 | 11975 |     - |   263M |   0 |  15k|  12k|  12k|   8 |  2 |  11 |   0 | 1.025396e+05 | 1.052300e+05 |   2.62%| unknown
  8.2s|     1 |     0 | 12417 |     - |   266M |   0 |  15k|  12k|  12k|  10 |  3 |  11 |   0 | 1.025502e+05 | 1.052300e+05 |   2.61%| unknown
  9.1s|     1 |     0 | 12651 |     - |   272M |   0 |  15k|  12k|  12k|  11 |  4 |  11 |   0 | 1.025609e+05 | 1.052300e+05 |   2.60%| unknown
 10.5s|     1 |     0 | 13108 |     - |   278M |   0 |  15k|  12k|  12k|  12 |  5 |  11 |   0 | 1.025732e+05 | 1.052300e+05 |   2.59%| unknown
 11.6s|     1 |     0 | 13524 |     - |   288M |   0 |  15k|  12k|  12k|  15 |  6 |  11 |   0 | 1.025816e+05 | 1.052300e+05 |   2.58%| unknown
 12.7s|     1 |     0 | 14325 |     - |   292M |   0 |  15k|  12k|  12k|  19 |  7 |  11 |   0 | 1.025927e+05 | 1.052300e+05 |   2.57%| unknown
 13.6s|     1 |     0 | 14764 |     - |   298M |   0 |  15k|  12k|  12k|  22 |  8 |  11 |   0 | 1.026014e+05 | 1.052300e+05 |   2.56%| unknown
 14.6s|     1 |     0 | 15128 |     - |   300M |   0 |  15k|  12k|  12k|  25 |  9 |  11 |   0 | 1.026094e+05 | 1.052300e+05 |   2.55%| unknown
 15.7s|     1 |     0 | 15542 |     - |   304M |   0 |  15k|  12k|  12k|  26 | 10 |  11 |   0 | 1.026187e+05 | 1.052300e+05 |   2.54%| unknown
 time | node  | left  |LP iter|LP it/n|mem/heur|mdpt |vars |cons |rows |cuts |sepa|confs|strbr|  dualbound   | primalbound  |  gap   | compl. 
 16.2s|     1 |     0 | 15909 |     - |   305M |   0 |  15k|  12k|  12k|  30 | 11 |  11 |   0 | 1.026245e+05 | 1.052300e+05 |   2.54%| unknown
 16.8s|     1 |     0 | 16448 |     - |   307M |   0 |  15k|  12k|  12k|  34 | 12 |  11 |   0 | 1.026333e+05 | 1.052300e+05 |   2.53%| unknown
 17.3s|     1 |     0 | 16631 |     - |   310M |   0 |  15k|  12k|  12k|  36 | 13 |  11 |   0 | 1.026356e+05 | 1.052300e+05 |   2.53%| unknown
 17.9s|     1 |     0 | 16937 |     - |   311M |   0 |  15k|  12k|  12k|  38 | 14 |  11 |   0 | 1.026400e+05 | 1.052300e+05 |   2.52%| unknown
 18.6s|     1 |     0 | 17132 |     - |   313M |   0 |  15k|  12k|  12k|  39 | 15 |  11 |   0 | 1.026418e+05 | 1.052300e+05 |   2.52%| unknown
 19.2s|     1 |     0 | 17275 |     - |   315M |   0 |  15k|  12k|  12k|  40 | 16 |  11 |   0 | 1.026425e+05 | 1.052300e+05 |   2.52%| unknown
d21.7s|     1 |     0 | 20717 |     - |farkasdi|   0 |  15k|9805 |  12k|   0 | 17 |  11 |   0 | 1.026425e+05 | 1.029590e+05 |   0.31%| unknown
(run 1, node 1) restarting after 5456 global fixings of integer variables

(restart) converted 40 cuts from the global cut pool into linear constraints

presolving:
(round 1, fast)       10455 del vars, 5005 del conss, 0 add conss, 0 chg bounds, 0 chg sides, 401 chg coeffs, 0 upgd conss, 0 impls, 4797 clqs
   (29.5s) running MILP presolver
   (29.5s) MILP presolver found nothing
(round 2, exhaustive) 10455 del vars, 5005 del conss, 0 add conss, 0 chg bounds, 0 chg sides, 401 chg coeffs, 40 upgd conss, 0 impls, 4797 clqs
(round 3, medium)     10455 del vars, 5007 del conss, 2 add conss, 0 chg bounds, 2 chg sides, 405 chg coeffs, 40 upgd conss, 0 impls, 4797 clqs
presolving (4 rounds: 4 fast, 3 medium, 2 exhaustive):
 10455 deleted vars, 5007 deleted constraints, 2 added constraints, 0 tightened bounds, 0 added holes, 2 changed sides, 405 changed coefficients
 0 implications, 4797 cliques
presolved problem has 4620 variables (4620 bin, 0 int, 0 impl, 0 cont) and 4840 constraints
     40 constraints of type <knapsack>
   4797 constraints of type <setppc>
      3 constraints of type <logicor>
transformed objective value is always integral (scale: 1)
Presolving Time: 1.25
transformed 4/6 original solutions to the transformed problem space

 time | node  | left  |LP iter|LP it/n|mem/heur|mdpt |vars |cons |rows |cuts |sepa|confs|strbr|  dualbound   | primalbound  |  gap   | compl. 
 32.3s|     1 |     0 | 39760 |     - |   317M |   0 |4620 |4840 |4837 |   0 |  0 |  38 |   0 | 1.026425e+05 | 1.029590e+05 |   0.31%| unknown
 32.5s|     1 |     0 | 39760 |     - |   318M |   0 |4620 |4840 |4570 |   0 |  0 |  38 |   0 | 1.026425e+05 | 1.029590e+05 |   0.31%| unknown
 33.2s|     1 |     0 | 40057 |     - |   319M |   0 |4620 |4573 |4571 |   1 |  1 |  38 |   0 | 1.026483e+05 | 1.029590e+05 |   0.30%| unknown
 35.7s|     1 |     0 | 40321 |     - |   323M |   0 |4620 |4573 |4573 |   3 |  2 |  38 |   0 | 1.026532e+05 | 1.029590e+05 |   0.30%| unknown
 36.6s|     1 |     0 | 40610 |     - |   327M |   0 |4620 |4573 |4574 |   4 |  3 |  38 |   0 | 1.026573e+05 | 1.029590e+05 |   0.29%| unknown
 37.3s|     1 |     0 | 40887 |     - |   331M |   0 |4620 |4573 |4576 |   6 |  4 |  38 |   0 | 1.026605e+05 | 1.029590e+05 |   0.29%| unknown
 37.8s|     1 |     0 | 41156 |     - |   331M |   0 |4620 |4573 |4578 |   8 |  5 |  38 |   0 | 1.026622e+05 | 1.029590e+05 |   0.29%| unknown
 38.3s|     1 |     0 | 41288 |     - |   332M |   0 |4620 |4573 |4579 |   9 |  6 |  38 |   0 | 1.026637e+05 | 1.029590e+05 |   0.29%| unknown
 38.8s|     1 |     0 | 41749 |     - |   333M |   0 |4620 |4573 |4581 |  11 |  7 |  38 |   0 | 1.026691e+05 | 1.029590e+05 |   0.28%| unknown
 39.2s|     1 |     0 | 41887 |     - |   333M |   0 |4620 |4573 |4582 |  12 |  8 |  38 |   0 | 1.026717e+05 | 1.029590e+05 |   0.28%| unknown
 39.7s|     1 |     0 | 42079 |     - |   334M |   0 |4620 |4573 |4584 |  14 |  9 |  38 |   0 | 1.026738e+05 | 1.029590e+05 |   0.28%| unknown
 40.2s|     1 |     0 | 42290 |     - |   336M |   0 |4620 |4573 |4585 |  15 | 10 |  38 |   0 | 1.026769e+05 | 1.029590e+05 |   0.27%| unknown
 40.5s|     1 |     0 | 42594 |     - |   337M |   0 |4620 |4573 |4587 |  17 | 11 |  38 |   0 | 1.026816e+05 | 1.029590e+05 |   0.27%| unknown
(run 2, node 1) restarting after 607 global fixings of integer variables

(restart) converted 17 cuts from the global cut pool into linear constraints

presolving:
(round 1, fast)       607 del vars, 2 del conss, 0 add conss, 0 chg bounds, 0 chg sides, 5 chg coeffs, 0 upgd conss, 0 impls, 4193 clqs
(round 2, exhaustive) 607 del vars, 3 del conss, 0 add conss, 0 chg bounds, 0 chg sides, 5 chg coeffs, 11 upgd conss, 0 impls, 4193 clqs
presolving (3 rounds: 3 fast, 2 medium, 2 exhaustive):
 607 deleted vars, 3 deleted constraints, 0 added constraints, 0 tightened bounds, 0 added holes, 0 changed sides, 5 changed coefficients
 0 implications, 4193 cliques
presolved problem has 4013 variables (4013 bin, 0 int, 0 impl, 0 cont) and 4252 constraints
     51 constraints of type <knapsack>
   4193 constraints of type <setppc>
      6 constraints of type <linear>
      2 constraints of type <logicor>
transformed objective value is always integral (scale: 1)
Presolving Time: 1.33
transformed 5/7 original solutions to the transformed problem space

 time | node  | left  |LP iter|LP it/n|mem/heur|mdpt |vars |cons |rows |cuts |sepa|confs|strbr|  dualbound   | primalbound  |  gap   | compl. 
 47.5s|     1 |     0 | 58363 |     - |   330M |   0 |4013 |4252 |4250 |   0 |  0 |  40 |   0 | 1.026816e+05 | 1.029590e+05 |   0.27%| unknown
 47.7s|     1 |     0 | 58363 |     - |   330M |   0 |4013 |4252 |4091 |   0 |  0 |  40 |   0 | 1.026816e+05 | 1.029590e+05 |   0.27%| unknown
 48.1s|     1 |     0 | 58541 |     - |   331M |   0 |4013 |4093 |4092 |   1 |  1 |  40 |   0 | 1.026828e+05 | 1.029590e+05 |   0.27%| unknown
 48.6s|     1 |     0 | 58668 |     - |   331M |   0 |4013 |4093 |4093 |   2 |  2 |  40 |   0 | 1.026835e+05 | 1.029590e+05 |   0.27%| unknown
 49.0s|     1 |     0 | 58714 |     - |   331M |   0 |4013 |4093 |4094 |   3 |  3 |  40 |   0 | 1.026836e+05 | 1.029590e+05 |   0.27%| unknown
 49.5s|     1 |     0 | 59299 |     - |   333M |   0 |4013 |4093 |4096 |   5 |  4 |  40 |   0 | 1.026913e+05 | 1.029590e+05 |   0.26%| unknown
 50.1s|     1 |     0 | 59365 |     - |   333M |   0 |4013 |4093 |4097 |   6 |  5 |  40 |   0 | 1.026916e+05 | 1.029590e+05 |   0.26%| unknown
 50.7s|     1 |     0 | 59662 |     - |   334M |   0 |4013 |4093 |4099 |   8 |  6 |  40 |   0 | 1.026945e+05 | 1.029590e+05 |   0.26%| unknown
 51.2s|     1 |     0 | 59743 |     - |   334M |   0 |4013 |4093 |4100 |   9 |  7 |  40 |   0 | 1.026948e+05 | 1.029590e+05 |   0.26%| unknown
 51.8s|     1 |     0 | 59879 |     - |   335M |   0 |4013 |4093 |4101 |  10 |  8 |  40 |   0 | 1.026955e+05 | 1.029590e+05 |   0.26%| unknown
 52.3s|     1 |     0 | 59943 |     - |   335M |   0 |4013 |4093 |4102 |  11 |  9 |  40 |   0 | 1.026958e+05 | 1.029590e+05 |   0.26%| unknown
 52.8s|     1 |     0 | 60047 |     - |   335M |   0 |4013 |4093 |4103 |  12 | 10 |  40 |   0 | 1.026962e+05 | 1.029590e+05 |   0.26%| unknown
 53.2s|     1 |     0 | 60143 |     - |   336M |   0 |4013 |4093 |4102 |  13 | 11 |  40 |   0 | 1.026967e+05 | 1.029590e+05 |   0.26%| unknown
(run 3, node 1) restarting after 403 global fixings of integer variables

(restart) converted 13 cuts from the global cut pool into linear constraints

presolving:
(round 1, fast)       403 del vars, 0 del conss, 0 add conss, 0 chg bounds, 0 chg sides, 0 chg coeffs, 0 upgd conss, 0 impls, 3792 clqs
   (58.4s) running MILP presolver
   (58.4s) MILP presolver found nothing
(round 2, exhaustive) 403 del vars, 0 del conss, 0 add conss, 0 chg bounds, 0 chg sides, 0 chg coeffs, 13 upgd conss, 0 impls, 3792 clqs
presolving (3 rounds: 3 fast, 2 medium, 2 exhaustive):
 403 deleted vars, 0 deleted constraints, 0 added constraints, 0 tightened bounds, 0 added holes, 0 changed sides, 1 changed coefficients
 0 implications, 3792 cliques
presolved problem has 3610 variables (3610 bin, 0 int, 0 impl, 0 cont) and 3867 constraints
     64 constraints of type <knapsack>
   3792 constraints of type <setppc>
      6 constraints of type <linear>
      5 constraints of type <logicor>
transformed objective value is always integral (scale: 1)
Presolving Time: 1.47
transformed 6/8 original solutions to the transformed problem space

 time | node  | left  |LP iter|LP it/n|mem/heur|mdpt |vars |cons |rows |cuts |sepa|confs|strbr|  dualbound   | primalbound  |  gap   | compl. 
 61.3s|     1 |     0 | 76156 |     - |   338M |   0 |3610 |3867 |3862 |   0 |  0 |  43 |   0 | 1.026967e+05 | 1.029590e+05 |   0.26%| unknown
 61.5s|     1 |     0 | 76156 |     - |   338M |   0 |3610 |3867 |3772 |   0 |  0 |  43 |   0 | 1.026967e+05 | 1.029590e+05 |   0.26%| unknown
 62.1s|     1 |     0 | 76396 |     - |   339M |   0 |3610 |3777 |3773 |   1 |  1 |  43 |   0 | 1.026977e+05 | 1.029590e+05 |   0.25%| unknown
 62.6s|     1 |     0 | 76479 |     - |   339M |   0 |3610 |3777 |3774 |   2 |  2 |  43 |   0 | 1.026978e+05 | 1.029590e+05 |   0.25%| unknown
 63.1s|     1 |     0 | 76620 |     - |   339M |   0 |3610 |3777 |3775 |   3 |  3 |  43 |   0 | 1.026985e+05 | 1.029590e+05 |   0.25%| unknown
 63.6s|     1 |     0 | 76678 |     - |   340M |   0 |3610 |3777 |3776 |   4 |  4 |  43 |   0 | 1.026988e+05 | 1.029590e+05 |   0.25%| unknown
 64.2s|     1 |     0 | 76877 |     - |   340M |   0 |3610 |3777 |3777 |   5 |  5 |  43 |   0 | 1.026999e+05 | 1.029590e+05 |   0.25%| unknown
 64.7s|     1 |     0 | 77157 |     - |   341M |   0 |3610 |3777 |3778 |   6 |  6 |  43 |   0 | 1.027011e+05 | 1.029590e+05 |   0.25%| unknown
 76.0s|     1 |     2 | 81466 |     - |   341M |   0 |3610 |3650 |3778 |   6 |  8 |  43 |  20 | 1.027340e+05 | 1.029590e+05 |   0.22%| unknown
(run 4, node 1) restarting after 218 global fixings of integer variables

(restart) converted 6 cuts from the global cut pool into linear constraints

presolving:
(round 1, fast)       218 del vars, 0 del conss, 0 add conss, 0 chg bounds, 0 chg sides, 0 chg coeffs, 0 upgd conss, 0 impls, 3575 clqs
(round 2, exhaustive) 218 del vars, 0 del conss, 0 add conss, 0 chg bounds, 0 chg sides, 0 chg coeffs, 6 upgd conss, 0 impls, 3575 clqs
presolving (3 rounds: 3 fast, 2 medium, 2 exhaustive):
 218 deleted vars, 0 deleted constraints, 0 added constraints, 0 tightened bounds, 0 added holes, 0 changed sides, 0 changed coefficients
 0 implications, 3575 cliques
presolved problem has 3392 variables (3392 bin, 0 int, 0 impl, 0 cont) and 3656 constraints
     70 constraints of type <knapsack>
   3575 constraints of type <setppc>
      6 constraints of type <linear>
      5 constraints of type <logicor>
transformed objective value is always integral (scale: 1)
Presolving Time: 1.56
transformed 7/9 original solutions to the transformed problem space

 time | node  | left  |LP iter|LP it/n|mem/heur|mdpt |vars |cons |rows |cuts |sepa|confs|strbr|  dualbound   | primalbound  |  gap   | compl. 
 78.2s|     1 |     0 | 92427 |     - |   342M |   0 |3392 |3656 |3651 |   0 |  0 |  43 |  20 | 1.027340e+05 | 1.029590e+05 |   0.22%| unknown
 78.4s|     1 |     0 | 92427 |     - |   342M |   0 |3392 |3656 |3575 |   0 |  0 |  43 |  20 | 1.027340e+05 | 1.029590e+05 |   0.22%| unknown
 78.7s|     1 |     0 | 92551 |     - |   342M |   0 |3392 |3580 |3576 |   1 |  1 |  43 |  20 | 1.027340e+05 | 1.029590e+05 |   0.22%| unknown
 79.1s|     1 |     0 | 92629 |     - |   343M |   0 |3392 |3580 |3577 |   2 |  2 |  43 |  20 | 1.027340e+05 | 1.029590e+05 |   0.22%| unknown
 79.5s|     1 |     0 | 92740 |     - |   343M |   0 |3392 |3580 |3578 |   3 |  3 |  43 |  20 | 1.027340e+05 | 1.029590e+05 |   0.22%| unknown
 79.9s|     1 |     0 | 92816 |     - |   344M |   0 |3392 |3580 |3579 |   4 |  4 |  43 |  20 | 1.027340e+05 | 1.029590e+05 |   0.22%| unknown
 80.3s|     1 |     0 | 93032 |     - |   344M |   0 |3392 |3580 |3580 |   5 |  5 |  43 |  20 | 1.027340e+05 | 1.029590e+05 |   0.22%| unknown
 90.3s|     1 |     2 | 97653 |     - |   344M |   0 |3392 |3458 |3580 |   5 |  7 |  43 |  39 | 1.027340e+05 | 1.029590e+05 |   0.22%| unknown

SCIP Status        : problem is solved [optimal solution found]
Solving Time (sec) : 92.41
Solving Nodes      : 3 (total of 7 nodes in 5 runs)
Primal Bound       : +1.02959000000000e+05 (10 solutions)
Dual Bound         : +1.02959000000000e+05
Gap                : 0.00 %
Solve Status: optimal
Solve Time: 92.44 seconds
Objective Value: 102959.00
